language ESSENCE' 1.0

letting n_boats be 11
letting n_periods be 5
letting crew_Function1D be [2, 2, 2, 2, 4, 4, 4, 1, 2, 2, 2; int(1..11)]
letting capacity_Function1D be [6, 8, 12, 12, 12, 12, 12, 10, 10, 10, 10; int(1..11)]
letting fin1 be 11
letting fin2 be 12
letting fin3 be 11
letting fin4 be 4
